NAME: instance_2637
TYPE: TSP
DIMENSION: 20
EDGE_WEIGHT_TYPE: EUC_2D
NODE_COORD_SECTION
0 18.43 4.80
1 81.10 66.69
2 14.39 62.40
3 84.75 49.62
4 75.38 65.83
5 44.46 89.45
6 39.26 17.42
7 34.91 97.56
8 81.41 61.89
9 21.27 86.18
10 61.80 71.20
11 12.30 55.57
12 45.79 33.25
13 26.83 1.92
14 56.92 12.47
15 42.58 63.13
16 88.17 65.44
17 79.98 62.18
18 80.80 51.29
19 22.18 18.79
EOF
